SECTION Graph
Nodes 632
Edges 1087
E 1 2 5
E 2 3 5
E 3 4 5
E 4 5 5
E 5 6 5
E 6 7 5
E 7 8 5
E 8 9 5
E 10 11 5
E 11 12 5
E 12 13 5
E 14 15 5
E 16 17 5
E 17 18 5
E 19 20 5
E 20 21 5
E 21 22 5
E 22 23 5
E 23 24 5
E 24 25 5
E 1 27 13
E 2 28 13
E 3 29 13
E 4 30 13
E 5 31 13
E 6 32 13
E 7 33 13
E 8 34 13
E 9 35 13
E 10 39 13
E 11 40 13
E 12 41 13
E 13 42 13
E 14 43 13
E 15 44 13
E 16 46 13
E 17 47 13
E 18 48 13
E 19 49 13
E 20 50 13
E 22 52 13
E 23 53 13
E 24 54 13
E 25 55 13
E 26 56 13
E 27 28 5
E 28 29 5
E 29 30 5
E 30 31 5
E 31 32 5
E 32 33 5
E 33 34 5
E 34 35 5
E 35 36 5
E 36 37 5
E 37 38 5
E 38 39 5
E 39 40 5
E 40 41 5
E 41 42 5
E 43 44 5
E 44 45 5
E 45 46 5
E 46 47 5
E 47 48 5
E 49 50 5
E 50 51 5
E 51 52 5
E 52 53 5
E 53 54 5
E 54 55 5
E 27 57 13
E 28 58 13
E 29 59 13
E 30 60 13
E 31 61 13
E 32 62 13
E 33 63 13
E 34 64 13
E 35 65 13
E 36 66 13
E 37 67 13
E 38 68 13
E 39 69 13
E 40 70 13
E 41 71 13
E 42 72 13
E 43 74 13
E 44 75 13
E 45 76 13
E 46 77 13
E 47 78 13
E 48 79 13
E 49 81 13
E 50 82 13
E 51 83 13
E 52 84 13
E 53 85 13
E 54 86 13
E 55 87 13
E 56 89 13
E 57 58 5
E 58 59 5
E 59 60 5
E 60 61 5
E 61 62 5
E 62 63 5
E 63 64 5
E 64 65 5
E 65 66 5
E 66 67 5
E 67 68 5
E 68 69 5
E 69 70 5
E 70 71 5
E 71 72 5
E 72 73 5
E 73 74 5
E 74 75 5
E 75 76 5
E 76 77 5
E 77 78 5
E 78 79 5
E 79 80 5
E 80 81 5
E 81 82 5
E 82 83 5
E 83 84 5
E 84 85 5
E 85 86 5
E 86 87 5
E 87 88 5
E 88 89 5
E 57 90 13
E 58 91 13
E 59 92 13
E 60 93 13
E 61 94 13
E 62 95 13
E 63 96 13
E 66 99 13
E 69 102 13
E 72 105 13
E 73 106 13
E 74 107 13
E 75 108 13
E 76 109 13
E 78 111 13
E 79 112 13
E 80 113 13
E 81 114 13
E 82 115 13
E 84 116 13
E 85 117 13
E 86 118 13
E 87 119 13
E 88 120 13
E 89 121 13
E 90 91 5
E 91 92 5
E 92 93 5
E 93 94 5
E 94 95 5
E 95 96 5
E 96 97 5
E 97 98 5
E 98 99 5
E 99 100 5
E 100 101 5
E 101 102 5
E 102 103 5
E 103 104 5
E 104 105 5
E 105 106 5
E 106 107 5
E 107 108 5
E 108 109 5
E 109 110 5
E 110 111 5
E 111 112 5
E 112 113 5
E 113 114 5
E 114 115 5
E 116 117 5
E 117 118 5
E 118 119 5
E 119 120 5
E 120 121 5
E 90 122 13
E 91 123 13
E 92 124 13
E 93 125 13
E 94 126 13
E 95 127 13
E 98 130 13
E 101 133 13
E 103 134 13
E 104 135 13
E 106 136 13
E 107 137 13
E 109 138 13
E 110 139 13
E 111 140 13
E 112 141 13
E 114 143 13
E 115 144 13
E 116 145 13
E 117 146 13
E 119 148 13
E 120 149 13
E 121 150 13
E 122 123 5
E 123 124 5
E 124 125 5
E 125 126 5
E 126 127 5
E 127 128 5
E 128 129 5
E 129 130 5
E 130 131 5
E 131 132 5
E 132 133 5
E 134 135 5
E 136 137 5
E 138 139 5
E 139 140 5
E 140 141 5
E 141 142 5
E 142 143 5
E 143 144 5
E 145 146 5
E 146 147 5
E 147 148 5
E 148 149 5
E 149 150 5
E 122 151 13
E 123 152 13
E 124 153 13
E 125 154 13
E 126 155 13
E 129 158 13
E 132 161 13
E 133 162 13
E 134 163 13
E 135 164 13
E 136 165 13
E 137 166 13
E 138 167 13
E 139 168 13
E 140 169 13
E 141 170 13
E 142 171 13
E 143 172 13
E 144 173 13
E 145 175 13
E 146 176 13
E 147 177 13
E 148 178 13
E 149 179 13
E 150 180 13
E 151 152 5
E 152 153 5
E 153 154 5
E 154 155 5
E 155 156 5
E 156 157 5
E 157 158 5
E 158 159 5
E 159 160 5
E 160 161 5
E 161 162 5
E 163 164 5
E 165 166 5
E 167 168 5
E 168 169 5
E 169 170 5
E 170 171 5
E 171 172 5
E 172 173 5
E 173 174 5
E 174 175 5
E 175 176 5
E 176 177 5
E 177 178 5
E 178 179 5
E 179 180 5
E 151 181 13
E 152 182 13
E 153 183 13
E 154 184 13
E 155 185 13
E 156 186 13
E 157 187 13
E 158 188 13
E 159 189 13
E 161 190 13
E 162 191 13
E 163 193 13
E 164 194 13
E 165 196 13
E 166 197 13
E 167 199 13
E 168 200 13
E 169 201 13
E 172 204 13
E 173 205 13
E 174 206 13
E 175 207 13
E 176 208 13
E 179 211 13
E 180 212 13
E 181 182 5
E 182 183 5
E 183 184 5
E 184 185 5
E 185 186 5
E 186 187 5
E 187 188 5
E 188 189 5
E 190 191 5
E 191 192 5
E 192 193 5
E 193 194 5
E 194 195 5
E 195 196 5
E 196 197 5
E 197 198 5
E 198 199 5
E 199 200 5
E 200 201 5
E 201 202 5
E 202 203 5
E 203 204 5
E 204 205 5
E 205 206 5
E 206 207 5
E 207 208 5
E 208 209 5
E 209 210 5
E 210 211 5
E 211 212 5
E 181 213 13
E 182 214 13
E 183 215 13
E 184 216 13
E 185 217 13
E 186 218 13
E 187 219 13
E 188 220 13
E 189 221 13
E 190 222 13
E 191 223 13
E 192 224 13
E 193 225 13
E 194 226 13
E 195 227 13
E 196 228 13
E 197 229 13
E 198 230 13
E 199 231 13
E 200 232 13
E 201 233 13
E 202 234 13
E 204 235 13
E 206 236 13
E 207 237 13
E 208 238 13
E 209 239 13
E 210 240 13
E 212 241 13
E 213 214 5
E 214 215 5
E 215 216 5
E 216 217 5
E 217 218 5
E 218 219 5
E 219 220 5
E 220 221 5
E 222 223 5
E 223 224 5
E 224 225 5
E 225 226 5
E 226 227 5
E 227 228 5
E 228 229 5
E 229 230 5
E 230 231 5
E 231 232 5
E 232 233 5
E 233 234 5
E 236 237 5
E 237 238 5
E 238 239 5
E 239 240 5
E 213 242 13
E 214 243 13
E 215 244 13
E 216 245 13
E 217 246 13
E 218 247 13
E 219 248 13
E 220 249 13
E 221 250 13
E 222 252 13
E 223 253 13
E 226 256 13
E 227 257 13
E 228 258 13
E 232 259 13
E 233 260 13
E 234 261 13
E 235 262 13
E 236 263 13
E 237 264 13
E 238 265 13
E 239 266 13
E 240 267 13
E 241 268 13
E 242 243 5
E 243 244 5
E 244 245 5
E 245 246 5
E 246 247 5
E 247 248 5
E 248 249 5
E 249 250 5
E 250 251 5
E 251 252 5
E 252 253 5
E 253 254 5
E 254 255 5
E 255 256 5
E 256 257 5
E 257 258 5
E 259 260 5
E 260 261 5
E 263 264 5
E 264 265 5
E 265 266 5
E 266 267 5
E 242 269 13
E 243 270 13
E 244 271 13
E 245 272 13
E 246 273 13
E 247 274 13
E 248 275 13
E 249 276 13
E 250 277 13
E 251 278 13
E 252 279 13
E 254 280 13
E 255 281 13
E 256 282 13
E 258 283 13
E 259 287 13
E 260 288 13
E 261 289 13
E 262 291 13
E 263 293 13
E 264 294 13
E 265 295 13
E 266 296 13
E 267 297 13
E 268 299 13
E 269 270 5
E 270 271 5
E 271 272 5
E 272 273 5
E 273 274 5
E 274 275 5
E 275 276 5
E 276 277 5
E 277 278 5
E 278 279 5
E 280 281 5
E 281 282 5
E 283 284 5
E 284 285 5
E 285 286 5
E 286 287 5
E 287 288 5
E 288 289 5
E 289 290 5
E 290 291 5
E 291 292 5
E 292 293 5
E 293 294 5
E 294 295 5
E 295 296 5
E 296 297 5
E 297 298 5
E 298 299 5
E 269 300 13
E 270 301 13
E 271 302 13
E 272 303 13
E 273 304 13
E 274 305 13
E 275 306 13
E 276 307 13
E 277 308 13
E 278 309 13
E 279 310 13
E 280 311 13
E 281 312 13
E 282 313 13
E 283 314 13
E 284 315 13
E 285 316 13
E 286 317 13
E 287 318 13
E 288 319 13
E 289 320 13
E 290 321 13
E 291 322 13
E 292 323 13
E 293 324 13
E 294 325 13
E 295 326 13
E 296 327 13
E 297 328 13
E 298 329 13
E 299 330 13
E 300 301 5
E 301 302 5
E 302 303 5
E 303 304 5
E 304 305 5
E 305 306 5
E 306 307 5
E 307 308 5
E 308 309 5
E 309 310 5
E 311 312 5
E 312 313 5
E 314 315 5
E 315 316 5
E 316 317 5
E 317 318 5
E 318 319 5
E 319 320 5
E 320 321 5
E 321 322 5
E 322 323 5
E 323 324 5
E 324 325 5
E 325 326 5
E 326 327 5
E 327 328 5
E 328 329 5
E 329 330 5
E 301 332 13
E 302 333 13
E 303 334 13
E 304 335 13
E 305 336 13
E 306 337 13
E 307 338 13
E 308 339 13
E 309 340 13
E 310 341 13
E 311 343 13
E 312 344 13
E 313 345 13
E 314 347 13
E 315 348 13
E 316 349 13
E 317 350 13
E 318 351 13
E 319 352 13
E 323 353 13
E 324 354 13
E 325 355 13
E 329 356 13
E 330 357 13
E 331 332 5
E 332 333 5
E 333 334 5
E 334 335 5
E 335 336 5
E 336 337 5
E 337 338 5
E 338 339 5
E 339 340 5
E 340 341 5
E 341 342 5
E 342 343 5
E 343 344 5
E 344 345 5
E 345 346 5
E 346 347 5
E 347 348 5
E 348 349 5
E 349 350 5
E 350 351 5
E 351 352 5
E 353 354 5
E 354 355 5
E 356 357 5
E 331 358 13
E 332 359 13
E 333 360 13
E 334 361 13
E 335 362 13
E 336 363 13
E 337 364 13
E 338 365 13
E 339 366 13
E 340 367 13
E 341 368 13
E 342 369 13
E 343 370 13
E 345 372 13
E 346 373 13
E 347 374 13
E 348 375 13
E 349 376 13
E 351 377 13
E 352 378 13
E 353 382 13
E 355 383 13
E 356 387 13
E 357 388 13
E 358 359 5
E 359 360 5
E 360 361 5
E 361 362 5
E 362 363 5
E 363 364 5
E 364 365 5
E 365 366 5
E 366 367 5
E 367 368 5
E 368 369 5
E 369 370 5
E 370 371 5
E 371 372 5
E 372 373 5
E 373 374 5
E 374 375 5
E 375 376 5
E 377 378 5
E 378 379 5
E 379 380 5
E 380 381 5
E 381 382 5
E 383 384 5
E 384 385 5
E 385 386 5
E 386 387 5
E 387 388 5
E 358 389 13
E 359 390 13
E 360 391 13
E 361 392 13
E 362 393 13
E 363 394 13
E 364 395 13
E 366 396 13
E 367 397 13
E 368 398 13
E 369 399 13
E 372 402 13
E 373 403 13
E 374 404 13
E 375 405 13
E 376 406 13
E 377 407 13
E 378 408 13
E 379 409 13
E 380 410 13
E 381 411 13
E 382 412 13
E 383 413 13
E 384 414 13
E 385 415 13
E 386 416 13
E 387 417 13
E 389 390 5
E 390 391 5
E 391 392 5
E 392 393 5
E 393 394 5
E 394 395 5
E 396 397 5
E 397 398 5
E 398 399 5
E 399 400 5
E 400 401 5
E 401 402 5
E 402 403 5
E 403 404 5
E 404 405 5
E 405 406 5
E 407 408 5
E 408 409 5
E 409 410 5
E 410 411 5
E 411 412 5
E 413 414 5
E 414 415 5
E 415 416 5
E 416 417 5
E 417 418 5
E 389 419 13
E 390 420 13
E 391 421 13
E 392 422 13
E 393 423 13
E 394 424 13
E 395 425 13
E 396 426 13
E 398 427 13
E 399 428 13
E 400 429 13
E 401 430 13
E 404 433 13
E 405 434 13
E 406 435 13
E 407 437 13
E 410 440 13
E 411 441 13
E 412 442 13
E 413 444 13
E 414 445 13
E 415 446 13
E 416 447 13
E 417 448 13
E 419 420 5
E 420 421 5
E 421 422 5
E 422 423 5
E 423 424 5
E 424 425 5
E 427 428 5
E 428 429 5
E 429 430 5
E 430 431 5
E 431 432 5
E 432 433 5
E 433 434 5
E 434 435 5
E 435 436 5
E 436 437 5
E 437 438 5
E 438 439 5
E 439 440 5
E 440 441 5
E 441 442 5
E 442 443 5
E 443 444 5
E 444 445 5
E 445 446 5
E 446 447 5
E 447 448 5
E 419 449 13
E 420 450 13
E 421 451 13
E 422 452 13
E 423 453 13
E 424 454 13
E 425 455 13
E 426 457 13
E 427 458 13
E 428 459 13
E 430 461 13
E 431 462 13
E 433 464 13
E 434 465 13
E 435 466 13
E 436 467 13
E 437 468 13
E 438 469 13
E 439 470 13
E 440 471 13
E 441 472 13
E 442 473 13
E 443 474 13
E 444 475 13
E 445 476 13
E 446 477 13
E 448 478 13
E 449 450 5
E 450 451 5
E 451 452 5
E 452 453 5
E 453 454 5
E 454 455 5
E 455 456 5
E 456 457 5
E 458 459 5
E 459 460 5
E 460 461 5
E 461 462 5
E 462 463 5
E 463 464 5
E 464 465 5
E 465 466 5
E 466 467 5
E 467 468 5
E 468 469 5
E 469 470 5
E 470 471 5
E 471 472 5
E 472 473 5
E 473 474 5
E 474 475 5
E 475 476 5
E 476 477 5
E 449 479 13
E 451 480 13
E 452 481 13
E 453 482 13
E 454 483 13
E 455 484 13
E 456 485 13
E 457 486 13
E 458 488 13
E 459 489 13
E 460 490 13
E 461 491 13
E 462 492 13
E 463 493 13
E 464 494 13
E 465 495 13
E 468 498 13
E 469 499 13
E 470 500 13
E 471 501 13
E 472 502 13
E 473 503 13
E 474 504 13
E 475 505 13
E 476 506 13
E 477 507 13
E 478 508 13
E 480 481 5
E 481 482 5
E 482 483 5
E 483 484 5
E 484 485 5
E 485 486 5
E 486 487 5
E 487 488 5
E 488 489 5
E 489 490 5
E 490 491 5
E 491 492 5
E 492 493 5
E 493 494 5
E 494 495 5
E 495 496 5
E 496 497 5
E 497 498 5
E 498 499 5
E 499 500 5
E 500 501 5
E 501 502 5
E 502 503 5
E 503 504 5
E 504 505 5
E 505 506 5
E 506 507 5
E 508 509 5
E 479 510 13
E 480 511 13
E 481 512 13
E 482 513 13
E 483 514 13
E 484 515 13
E 485 516 13
E 486 517 13
E 487 518 13
E 488 519 13
E 489 520 13
E 491 521 13
E 492 522 13
E 493 523 13
E 494 524 13
E 495 525 13
E 498 528 13
E 499 529 13
E 500 530 13
E 501 531 13
E 502 532 13
E 503 533 13
E 504 534 13
E 505 535 13
E 506 536 13
E 507 537 13
E 508 539 13
E 509 540 13
E 511 512 5
E 512 513 5
E 513 514 5
E 514 515 5
E 515 516 5
E 516 517 5
E 517 518 5
E 518 519 5
E 519 520 5
E 521 522 5
E 522 523 5
E 523 524 5
E 524 525 5
E 525 526 5
E 526 527 5
E 527 528 5
E 528 529 5
E 529 530 5
E 530 531 5
E 531 532 5
E 532 533 5
E 533 534 5
E 534 535 5
E 535 536 5
E 536 537 5
E 537 538 5
E 538 539 5
E 539 540 5
E 510 541 13
E 511 543 13
E 512 544 13
E 514 545 13
E 515 546 13
E 516 547 13
E 517 548 13
E 518 549 13
E 519 550 13
E 520 551 13
E 521 552 13
E 522 553 13
E 523 554 13
E 524 555 13
E 525 556 13
E 526 557 13
E 527 558 13
E 528 559 13
E 529 560 13
E 530 561 13
E 531 562 13
E 532 563 13
E 533 564 13
E 534 565 13
E 535 566 13
E 537 567 13
E 538 568 13
E 539 569 13
E 541 542 5
E 542 543 5
E 543 544 5
E 545 546 5
E 546 547 5
E 547 548 5
E 548 549 5
E 549 550 5
E 550 551 5
E 552 553 5
E 553 554 5
E 554 555 5
E 555 556 5
E 556 557 5
E 557 558 5
E 558 559 5
E 559 560 5
E 560 561 5
E 561 562 5
E 562 563 5
E 563 564 5
E 564 565 5
E 565 566 5
E 567 568 5
E 568 569 5
E 569 570 5
E 541 571 13
E 542 572 13
E 543 573 13
E 544 574 13
E 545 575 13
E 548 578 13
E 549 579 13
E 550 580 13
E 551 581 13
E 552 583 13
E 553 584 13
E 554 585 13
E 555 586 13
E 556 587 13
E 557 588 13
E 558 589 13
E 559 590 13
E 560 591 13
E 561 592 13
E 562 593 13
E 563 594 13
E 565 595 13
E 566 596 13
E 567 597 13
E 568 598 13
E 569 599 13
E 570 600 13
E 571 572 5
E 572 573 5
E 573 574 5
E 575 576 5
E 576 577 5
E 577 578 5
E 578 579 5
E 579 580 5
E 580 581 5
E 581 582 5
E 582 583 5
E 583 584 5
E 584 585 5
E 585 586 5
E 586 587 5
E 587 588 5
E 588 589 5
E 589 590 5
E 590 591 5
E 591 592 5
E 592 593 5
E 593 594 5
E 595 596 5
E 597 598 5
E 598 599 5
E 599 600 5
E 571 601 13
E 572 602 13
E 573 603 13
E 574 604 13
E 575 606 13
E 576 607 13
E 577 608 13
E 578 609 13
E 579 610 13
E 581 612 13
E 582 613 13
E 583 614 13
E 584 615 13
E 585 616 13
E 586 617 13
E 587 618 13
E 588 619 13
E 589 620 13
E 590 621 13
E 591 622 13
E 592 623 13
E 593 624 13
E 594 625 13
E 595 626 13
E 596 627 13
E 597 629 13
E 598 630 13
E 599 631 13
E 600 632 13
E 601 602 5
E 602 603 5
E 603 604 5
E 604 605 5
E 605 606 5
E 606 607 5
E 607 608 5
E 608 609 5
E 609 610 5
E 610 611 5
E 611 612 5
E 612 613 5
E 613 614 5
E 614 615 5
E 615 616 5
E 616 617 5
E 617 618 5
E 618 619 5
E 619 620 5
E 620 621 5
E 621 622 5
E 622 623 5
E 623 624 5
E 624 625 5
E 626 627 5
E 627 628 5
E 628 629 5
E 629 630 5
E 630 631 5
E 631 632 5
END

SECTION Terminals
Terminals 10
T 6
T 102
T 160
T 211
T 350
T 365
T 447
T 450
T 490
T 513
END

SECTION Tree Decomposition
c We do not guarantee that this tree decomposition has minimum width.
s td 539 21 632
b 1 26 56
b 2 418 417
b 3 56 89
b 4 25 24 55
b 5 371 370 372
b 6 628 627 629
b 7 97 96 98
b 8 89 88 121
b 9 388 357 387
b 10 100 99 101
b 11 1 27 2
b 12 9 8 35
b 13 426 396 457
b 14 432 431 433
b 15 128 127 129
b 16 478 508 448
b 17 479 510 449
b 18 496 497 495
b 19 497 498 495
b 20 509 540 508
b 21 540 508 539
b 22 510 541 449
b 23 131 130 132
b 24 508 539 448
b 25 570 600 569
b 26 10 11 39
b 27 160 159 161
b 28 601 571 602
b 29 605 606 604
b 30 611 610 612
b 31 625 624 594
b 32 626 627 595
b 33 632 600 631
b 34 13 42 12
b 35 203 202 204
b 36 14 15 43
b 37 15 43 44
b 38 235 262 204
b 39 43 44 74
b 40 241 268 212
b 41 16 17 46
b 42 262 291 204
b 43 268 212 299
b 44 18 17 48
b 45 19 49 20
b 46 300 269 301
b 47 21 20 22
b 48 331 358 332
b 49 600 599 631 569
b 50 17 47 48 46
b 51 24 55 54 23
b 52 88 121 120 87
b 53 357 356 330 387
b 54 356 330 329 387
b 55 358 359 389 332
b 56 627 595 596 629
b 57 27 2 28 57
b 58 624 594 593 623
b 59 121 120 150 87
b 60 8 34 7 35
b 61 2 28 3 57
b 62 571 602 572 541
b 63 594 593 623 563
b 64 595 596 629 565
b 65 596 566 629 565
b 66 599 631 598 569
b 67 631 630 598 569
b 68 42 12 41 72
b 69 630 598 569 629
b 70 11 12 40 39
b 71 44 45 75 74
b 72 47 48 46 78
b 73 48 46 78 79
b 74 49 20 50 81
b 75 566 629 535 565
b 76 602 572 603 541
b 77 55 54 23 87
b 78 269 270 242 301
b 79 20 50 22 81
b 80 330 329 299 387
b 81 567 568 597 537
b 82 552 521 553 583
b 83 346 373 345 347
b 84 350 317 349 351
b 85 352 378 351 319
b 86 353 354 323 382
b 87 547 546 548 516
b 88 342 343 369 341
b 89 545 546 575 514
b 90 544 574 543 512
b 91 355 354 325 383
b 92 542 572 543 541
b 93 572 573 603 543 541
b 94 573 603 574 543 541
b 95 603 574 543 541 604
b 96 574 543 541 512 604
b 97 543 541 511 512 604
b 98 538 568 539 537
b 99 90 57 91 122
b 100 365 338 366 364
b 101 370 372 343 369
b 102 376 406 349 375
b 103 377 378 407 351
b 104 379 409 378 380
b 105 381 411 380 382
b 106 96 63 98 95
b 107 527 526 558 528
b 108 384 385 414 383
b 109 622 623 591 621
b 110 386 416 385 387
b 111 157 156 158 187
b 112 99 98 66 101
b 113 395 425 394 364
b 114 396 397 457 366
b 115 6 7 32 5
b 116 400 429 399 401
b 117 402 403 372 401
b 118 577 576 608 578
b 119 102 69 103 101
b 120 408 409 378 407
b 121 513 482 512 514
b 122 412 411 442 382
b 123 413 414 444 383
b 124 127 129 95 126
b 125 507 477 506 537
b 126 104 135 105 103
b 127 417 416 448 387
b 128 419 389 420 449
b 129 427 458 428 398
b 130 431 430 433 462
b 131 108 75 109 107
b 132 436 467 435 437
b 133 110 139 109 111
b 134 438 439 469 437
b 135 443 444 474 442
b 136 447 416 448 446
b 137 113 80 114 112
b 138 450 420 449 451
b 139 115 144 114 82
b 140 456 485 457 455
b 141 460 490 461 459
b 142 116 145 84 117
b 143 463 464 493 462
b 144 466 467 435 465
b 145 613 582 614 612
b 146 620 619 589 621
b 147 118 86 117 119
b 148 480 511 481 451
b 149 617 618 586 616
b 150 487 518 486 488
b 151 610 609 579 612
b 152 615 614 584 616
b 153 520 551 519 489
b 154 130 132 129 98
b 155 133 162 132 101
b 156 536 506 537 535
b 157 134 135 163 103
b 158 136 137 165 106
b 159 138 167 139 109
b 160 564 565 533 563
b 161 36 37 35 66
b 162 344 312 345 343
b 163 147 177 146 148
b 164 580 550 579 581
b 165 38 37 68 39
b 166 606 607 575 604
b 167 151 122 152 181
b 168 159 189 158 161
b 169 164 135 163 194
b 170 166 137 165 197
b 171 170 171 141 169
b 172 142 171 141 143
b 173 174 206 175 173
b 174 178 177 148 179
b 175 180 212 150 179
b 176 190 222 161 191
b 177 192 224 193 191
b 178 195 196 194 227
b 179 198 230 197 199
b 180 202 234 204 201
b 181 51 83 50 52
b 182 205 206 173 204
b 183 209 239 210 208
b 184 211 212 179 210
b 185 213 242 214 181
b 186 221 189 220 250
b 187 4 3 30 5
b 188 225 224 226 193
b 189 229 230 197 228
b 190 231 230 199 232
b 191 236 263 237 206
b 192 240 267 239 210
b 193 251 278 250 252
b 194 253 254 223 252
b 195 64 65 34 63
b 196 255 281 254 256
b 197 257 258 227 256
b 198 259 260 232 287
b 199 261 234 260 289
b 200 67 37 68 66
b 201 70 40 71 69
b 202 279 310 278 252
b 203 280 311 281 254
b 204 282 313 281 256
b 205 283 314 284 258
b 206 285 286 316 284
b 207 73 74 72 106
b 208 290 321 291 289
b 209 292 291 323 293
b 210 298 329 297 299
b 211 77 46 78 76
b 212 320 321 289 319
b 213 322 321 291 323
b 214 327 328 296 326
b 215 328 329 296 326 297
b 216 541 511 512 449 604
b 217 409 378 407 380 410
b 218 429 399 428 430 401
b 219 28 3 29 58 57
b 220 467 435 437 465 468
b 221 120 149 150 87 119
b 222 490 461 459 489 491
b 223 135 163 105 103 194
b 224 163 105 103 193 194
b 225 609 608 578 579 612
b 226 582 614 583 581 612
b 227 137 165 197 107 106
b 228 165 197 196 107 106
b 229 607 576 608 575 604
b 230 576 608 578 575 604
b 231 177 176 146 148 179
b 232 37 68 39 35 66
b 233 68 39 69 35 66
b 234 12 41 40 39 72
b 235 41 40 71 39 72
b 236 40 71 39 69 72
b 237 39 69 72 35 66
b 238 171 141 169 172 143
b 239 224 226 193 191 223
b 240 230 197 228 199 232
b 241 598 569 568 597 629
b 242 569 568 597 539 629
b 243 568 597 539 629 537
b 244 539 629 537 448
b 245 629 537 535 448 565
b 246 65 34 63 35 66
b 247 54 23 53 86 87
b 248 593 592 623 562 563
b 249 23 22 53 86 87
b 250 46 78 76 45 79
b 251 311 281 312 254 343
b 252 313 281 312 345 256
b 253 281 312 254 345 343 256
b 254 78 76 45 111 79
b 255 321 291 289 323 319
b 256 80 114 81 79 112
b 257 83 50 52 84 82
b 258 526 557 558 525 528
b 259 397 457 398 366 367
b 260 359 390 389 360 332
b 261 406 405 435 349 375
b 262 403 373 372 404 401
b 263 425 394 424 364 455
b 264 439 470 469 440 437
b 265 458 428 459 488 398
b 266 477 506 537 446 476
b 267 619 618 588 589 621
b 268 521 553 583 522 491
b 269 551 550 519 489 581
b 270 144 114 143 82 173
b 271 145 146 84 117 175
b 272 162 132 161 101 191
b 273 156 186 155 158 187
b 274 167 139 109 199 168
b 275 212 150 179 299 210
b 276 222 161 191 223 252
b 277 267 239 297 266 210
b 278 263 237 206 264 293
b 279 270 242 243 301 271
b 280 286 316 317 284 287
b 281 310 278 309 341 252
b 282 314 284 315 258 347
b 283 511 512 481 449 451 604
b 284 34 33 7 63 35 66
b 285 33 7 63 32 35 66
b 286 7 63 32 5 35 66
b 287 608 578 575 579 612 604
b 288 50 52 22 84 82 81
b 289 52 22 53 84 82 81
b 290 578 575 548 579 612 604
b 291 149 150 148 179 87 119
b 292 76 45 75 109 111 79
b 293 45 75 74 109 111 79
b 294 75 74 109 111 107 79
b 295 390 389 420 391 360 332
b 296 389 420 391 449 360 332
b 297 416 415 385 448 446 387
b 298 415 385 414 448 446 387
b 299 385 414 448 446 383 387
b 300 139 109 111 199 140 168
b 301 378 407 380 410 351 319
b 302 407 380 410 351 437 319
b 303 550 519 549 579 489 581
b 304 3 29 58 57 30 5
b 305 29 58 57 59 30 5
b 306 58 57 59 30 91 5
b 307 57 59 30 91 122 5
b 308 614 583 584 616 581 612
b 309 132 129 98 161 101 191
b 310 239 297 266 210 208 238
b 311 242 243 301 271 214 181
b 312 243 301 271 214 244 181
b 313 592 623 562 561 591 563
b 314 623 562 561 591 621 563
b 315 562 561 591 621 531 563
b 316 69 103 72 35 66 101
b 317 506 537 535 446 476 505
b 318 278 309 341 250 252 277
b 319 316 317 284 315 349 287
b 320 329 296 326 297 299 387
b 321 537 535 448 446 476 565 505
b 322 535 448 446 476 565 505 534
b 323 308 309 339 277 307
b 324 555 556 586 524 554
b 325 362 335 361 363 393
b 326 305 304 274 306 336
b 327 92 59 91 93 124
b 328 303 334 304 272 302
b 329 153 124 154 152 183
b 330 348 315 349 347 375
b 331 517 518 548 486 516
b 332 337 338 306 336 364
b 333 515 546 516 484 514
b 334 546 575 548 516 484 514
b 335 422 421 452 423 392
b 336 498 528 495 499 468
b 337 501 502 471 531 500
b 338 454 424 453 483 455
b 339 368 398 369 341 367
b 340 494 464 493 495 524
b 341 492 493 522 462 491
b 342 31 30 32 5 61
b 343 125 93 124 154 126
b 344 123 91 122 124 152
b 345 475 476 444 474 505
b 346 472 473 502 471 441
b 347 94 93 61 95 126
b 348 585 584 586 554 616
b 349 560 561 591 529 559
b 350 184 185 154 183 216
b 351 188 189 220 158 187
b 352 189 220 158 187 161 250
b 353 182 214 152 181 183
b 354 200 199 168 201 232
b 355 276 249 275 277 307
b 356 207 237 206 175 208
b 357 215 214 244 183 216
b 358 217 185 216 218 246
b 359 219 248 220 218 187
b 360 340 309 339 341 367
b 361 434 405 435 465 433
b 362 532 533 502 531 563
b 363 233 234 260 201 232
b 364 234 260 289 204 201 232
b 365 445 414 446 476 444
b 366 414 448 446 476 444 383 387
b 367 324 354 325 323 293
b 368 354 325 323 293 382 383
b 369 60 59 30 93 61
b 370 245 244 216 246 272
b 371 62 63 32 61 95
b 372 247 248 218 246 274
b 373 503 504 533 473 502
b 374 265 266 295 238 264
b 375 273 304 246 272 274
b 376 523 493 522 524 554
b 377 374 373 347 375 404
b 378 288 260 289 287 319
b 379 260 289 204 201 232 287 319
b 380 294 295 264 325 293
b 381 590 591 589 559 621
b 382 530 561 529 531 500
b 383 318 317 351 287 319
b 384 317 284 315 349 351 287 319
b 385 587 618 588 556 586
b 386 333 334 360 302 332
b 387 85 53 86 84 117
b 388 553 583 584 522 554 491
b 389 470 469 440 471 500 437
b 390 105 103 193 72 106 194
b 391 291 289 323 293 204 319
b 392 411 380 410 441 442 382
b 393 399 428 430 398 369 401
b 394 141 169 172 143 112 140
b 395 461 459 430 489 462 491
b 396 186 155 185 218 158 187
b 397 394 424 363 393 364 455
b 398 254 345 343 256 223 252
b 399 557 558 525 588 556 528
b 400 558 525 588 556 589 559 528
b 401 420 391 421 449 451 360 332
b 402 391 421 449 451 360 392 332
b 403 428 459 430 488 398 369 401
b 404 22 53 86 84 87 82 81
b 405 53 86 84 87 117 82 81
b 406 86 84 87 117 119 82 81
b 407 519 549 518 579 488 489 581
b 408 549 518 548 579 488 489 581
b 409 469 440 471 499 500 437 468
b 410 150 148 179 87 119 299 210
b 411 289 323 293 204 201 232 287 319
b 412 485 457 486 516 455 484
b 413 482 512 481 453 483 514
b 414 176 146 148 179 175 208
b 415 146 148 179 84 117 175 208
b 416 296 326 297 266 295 299 387
b 417 326 297 266 295 299 325 387
b 418 74 109 111 107 79 72 106
b 419 373 372 345 347 375 404 401
b 420 169 172 143 112 140 168 201
b 421 155 185 154 126 218 158 187
b 422 284 315 349 351 287 319 258 347
b 423 315 349 351 287 319 258 347 375
b 424 421 449 451 452 423 360 392 332
b 425 59 30 91 122 93 124 5 61
b 426 30 91 122 93 124 32 5 61
b 427 91 122 93 124 32 5 61 152
b 428 122 93 124 32 5 61 152 181
b 429 518 548 579 486 516 488 489 581
b 430 301 271 214 244 181 302 332
b 431 271 214 244 181 272 302 332
b 432 405 435 349 465 375 404 433
b 433 237 206 175 208 238 264 293
b 434 618 588 556 589 621 586 616
b 435 197 196 228 107 199 232 106
b 436 114 143 82 81 173 79 112
b 437 338 339 366 306 307 336 364
b 438 504 474 505 534 533 473 502
b 439 583 584 522 554 616 491 581 612
b 440 584 522 586 554 616 491 581 612
b 441 372 345 343 347 375 404 369 401
b 442 172 143 173 204 112 140 168 201
b 443 435 349 437 465 468 375 404 433
b 444 561 591 529 559 621 531 500 563
b 445 591 529 589 559 621 531 500 563
b 446 206 175 208 238 264 293 173 204
b 447 196 228 107 199 232 106 194 227
b 448 228 107 199 232 258 106 194 227
b 449 525 588 556 589 559 528 495 524
b 450 440 410 471 441 499 500 437 468
b 451 448 446 476 444 565 505 534 383 387
b 452 476 444 565 474 505 534 383 387
b 453 444 565 474 505 534 442 383 387
b 454 226 193 194 227 256 191 223
b 455 464 493 495 524 465 433 462
b 456 249 275 248 220 250 277 307
b 457 275 248 220 250 274 277 306 307
b 458 512 481 449 451 453 483 514 604
b 459 481 449 451 452 453 483 514 604
b 460 309 339 341 367 250 252 277 307
b 461 575 548 579 516 612 484 514 604
b 462 103 193 72 106 194 35 66 101
b 463 63 32 5 61 98 95 35 66
b 464 380 410 441 442 351 437 319 382
b 465 529 589 559 621 528 531 499 500 563
b 466 565 474 505 534 533 442 563 383 387
b 467 474 505 534 533 473 502 442 563 383 387
b 468 533 473 502 442 531 563 383 387
b 469 473 502 471 441 442 531 563 383 387
b 470 502 471 441 442 531 500 563 383 387
b 471 335 361 334 304 363 393 336
b 472 361 334 304 363 360 392 393 336
b 473 424 423 453 483 363 393 364 455
b 474 297 266 295 299 210 208 238 325 387
b 475 266 295 299 210 208 238 264 325 387
b 476 295 299 210 208 238 264 325 293 387
b 477 588 556 589 559 621 528 586 495 524 616
b 478 556 589 559 621 528 586 495 524 554 616
b 479 459 430 488 489 398 369 401 462 491
b 480 430 488 489 398 369 401 433 462 491
b 481 214 244 152 181 183 216 272 302 332
b 482 244 152 181 183 216 246 272 302 332
b 483 493 522 495 524 554 465 433 462 491
b 484 148 179 84 87 117 119 299 210 175 208
b 485 84 87 117 119 299 210 175 208 82 81
b 486 129 98 95 126 158 161 101 191
b 487 457 486 516 398 366 367 455 484
b 488 185 154 126 183 216 218 158 187 246
b 489 109 111 107 199 79 140 168 72 106
b 490 111 107 199 79 112 140 168 72 106
b 491 143 82 81 173 204 79 112 140 168 201
b 492 299 210 175 208 238 264 325 293 82 81 387
b 493 175 208 238 264 325 293 82 81 173 204 387
b 494 93 124 32 5 61 95 154 126 152 181
b 495 124 32 5 61 95 154 126 152 181 183
b 496 334 304 363 360 392 393 272 302 332 336
b 497 325 323 293 82 81 173 204 382 383 387
b 498 248 220 218 187 246 250 274 277 306 307
b 499 220 218 158 187 161 246 250 274 277 306 307
b 500 548 579 486 516 488 489 581 612 484 514 604
b 501 32 5 61 98 95 154 126 152 181 183 35 66
b 502 345 343 347 375 404 256 369 401 223 252
b 503 343 347 375 404 256 369 401 341 223 252
b 504 449 451 452 423 453 483 360 392 332 514 604
b 505 423 453 483 363 360 392 393 332 364 455 514 604
b 506 483 363 360 392 393 332 364 455 484 514 604
b 507 410 471 441 442 499 500 351 437 468 319 382
b 508 522 586 495 524 554 616 465 433 462 491 581 612
b 509 339 341 366 367 250 252 277 306 307 336 364
b 510 193 72 106 194 227 256 35 66 101 191 223
b 511 107 199 79 112 140 168 232 258 72 106 194 227
b 512 199 79 112 140 168 201 232 258 72 106 194 227
b 513 304 363 360 392 393 246 272 274 302 306 332 336
b 514 589 559 621 528 586 495 524 554 616 531 499 500 563
b 515 528 586 495 524 554 616 531 499 500 563 468
b 516 98 95 154 126 152 181 183 158 161 35 66 101 191
b 517 323 293 82 81 173 204 201 232 287 319 382 383 387
b 518 471 441 442 531 499 500 563 351 437 468 319 382 383 387
b 519 82 81 173 204 79 112 140 168 201 232 287 319 382 383 387
b 520 154 126 152 181 183 216 218 158 187 161 35 66 101 191 246
b 521 349 351 437 465 468 287 319 258 347 375 404 433
b 522 486 516 488 489 398 581 612 366 367 455 484 514 604
b 523 79 112 140 168 201 232 287 319 382 383 387 258 72 106 194 227
b 524 152 181 183 216 218 158 187 161 35 66 101 191 246 272 302 332
b 525 586 495 524 554 616 531 499 500 563 465 468 433 462 491 581 612
b 526 363 360 392 393 246 272 274 302 306 332 336 364 455 484 514 604
b 527 218 158 187 161 35 66 101 191 246 250 272 274 277 302 306 307 332
b 528 161 35 66 101 191 223 246 250 252 272 274 277 302 306 307 332
b 529 531 499 500 563 351 437 465 468 319 382 383 387 433 462 491 581 612
b 530 351 437 465 468 287 319 382 383 387 258 347 375 404 433 462 491 581 612
b 531 287 319 382 383 387 258 347 375 404 72 106 194 227 433 462 491 581 612
b 532 258 347 375 404 72 106 194 227 256 433 462 491 581 612
b 533 488 489 398 369 401 433 462 491 581 612 366 367 455 484 514 604
b 534 398 369 401 433 462 491 581 612 341 366 367 455 484 514 604
b 535 347 375 404 72 106 194 227 256 369 401 433 462 491 581 612 341 223 252
b 536 72 106 194 227 256 369 401 433 462 491 581 612 341 35 66 101 191 223 252
b 537 369 401 433 462 491 581 612 341 366 367 35 66 101 191 223 252 455 484 514 604
b 538 341 366 367 35 66 101 191 223 250 252 277 306 307 336 364 455 484 514 604
b 539 35 66 101 191 223 246 250 252 272 274 277 302 306 307 332 336 364 455 484 514 604
1 3
3 8
8 52
52 59
59 221
221 291
291 410
410 484
484 485
484 415
485 406
485 492
492 493
492 476
476 475
475 474
493 446
493 497
497 517
517 519
519 523
523 512
512 511
523 531
531 530
531 532
530 529
532 535
535 536
536 537
537 534
534 533
537 538
538 539
539 528
528 527
539 526
527 524
524 520
529 525
529 518
533 522
526 513
520 516
525 508
530 521
536 510
538 509
527 499
525 515
518 507
526 506
515 514
506 505
535 503
522 500
513 496
516 501
499 498
514 478
519 491
503 502
501 495
478 477
495 494
533 480
524 482
520 488
518 470
508 483
514 465
505 504
480 479
511 490
482 481
470 469
490 489
517 411
522 487
516 486
508 440
521 423
521 443
510 462
509 460
507 464
507 450
505 473
500 429
500 461
496 472
501 463
498 457
491 442
502 441
477 449
494 428
465 445
511 448
504 424
448 447
504 459
459 458
469 468
468 467
467 466
466 453
453 452
452 451
440 439
423 422
428 427
427 426
426 425
445 444
467 438
451 322
451 366
447 435
422 384
424 402
322 321
402 401
474 417
417 416
446 433
510 454
509 437
406 405
405 404
491 436
477 434
488 421
483 455
479 403
481 431
431 430
489 418
411 379
443 432
450 409
429 408
472 471
408 407
457 456
442 420
441 419
449 400
439 388
439 308
425 307
444 315
366 299
384 319
321 317
401 296
416 320
404 289
458 413
421 396
403 393
458 283
430 312
418 294
379 364
409 389
407 303
420 394
400 399
307 306
315 314
299 298
296 295
289 288
312 311
294 293
306 305
314 313
298 297
293 292
305 304
474 310
497 368
415 414
499 352
502 398
479 395
489 300
411 391
487 412
486 309
462 316
462 390
460 318
464 302
302 301
464 392
473 397
461 334
461 290
290 287
463 286
286 285
285 284
422 282
427 344
426 342
425 327
425 369
444 349
444 382
438 373
366 365
435 228
435 240
384 383
321 245
454 239
433 278
433 356
437 332
405 387
404 249
436 256
436 270
434 267
434 385
455 340
403 265
379 378
432 261
432 361
471 325
456 355
419 262
419 377
388 268
308 226
476 380
319 280
317 266
320 215
396 273
393 218
283 216
364 363
389 264
303 269
452 345
475 374
295 260
288 257
311 279
313 248
424 335
414 231
292 254
395 222
304 219
399 258
300 274
391 255
309 272
316 237
468 362
390 224
534 339
318 281
301 217
394 238
397 263
334 333
287 230
287 225
284 246
228 227
249 247
216 97
254 250
237 233
224 223
528 276
230 229
97 96
233 232
96 95
95 94
94 93
368 367
513 326
513 375
415 271
515 336
352 351
496 328
496 386
498 372
498 359
478 324
495 329
494 343
494 347
512 354
482 370
488 358
488 350
470 337
483 341
483 376
310 277
398 253
481 357
253 251
253 252
481 353
469 346
487 259
440 348
423 330
443 220
410 275
460 323
460 360
473 338
429 331
463 371
445 381
447 178
532 197
466 160
453 135
366 123
384 84
401 138
437 100
434 149
455 143
418 207
379 198
419 83
308 152
307 99
299 108
317 156
446 173
296 128
320 80
320 210
413 121
283 148
294 131
364 180
364 199
303 164
314 109
288 79
311 185
293 71
297 110
297 127
297 136
398 194
304 187
300 133
391 209
412 140
309 154
316 119
318 193
301 85
301 103
392 105
392 122
334 87
334 89
286 115
284 60
282 205
240 179
240 189
240 190
245 75
245 244
239 177
239 188
278 191
256 137
270 139
267 146
265 129
261 102
262 117
268 82
226 145
227 170
280 206
266 125
227 158
215 214
273 111
446 182
218 116
264 134
269 153
260 55
257 181
248 63
279 78
231 163
231 174
222 141
219 61
258 107
274 159
255 208
255 212
255 213
272 155
237 236
236 235
235 234
281 202
217 104
217 120
238 171
238 172
263 113
230 118
225 151
246 195
250 73
232 161
223 169
250 211
310 183
223 157
223 126
229 166
276 176
277 192
253 162
253 196
96 90
251 203
252 204
259 114
247 77
220 132
220 144
275 175
275 184
232 200
232 165
93 92
80 54
79 74
271 142
75 65
244 243
243 242
242 241
63 58
61 57
243 98
243 81
236 201
234 68
234 70
73 72
77 51
54 53
65 64
241 69
72 50
64 56
69 67
67 66
66 49
516 112
368 91
368 86
406 147
503 88
352 186
352 168
93 76
76 62
480 130
486 124
429 150
463 106
441 101
428 167
101 5
166 29
55 48
60 12
154 23
71 39
391 42
275 43
43 40
336 19
19 18
216 22
22 17
42 38
39 37
37 36
180 35
79 47
74 45
244 24
24 16
24 21
21 20
58 31
78 46
57 11
151 30
70 26
114 13
124 15
68 34
53 9
112 10
50 44
50 41
49 25
49 33
56 6
56 32
62 28
168 27
130 14
51 4
106 7
127 2
END

EOF
